benchmarks_CP/INST_64x64/50/inst64x64_50_12.dzn
S=8;
start=[|
-1,	12,	14,	59,	30,	-1,	-1,	56,	2,	49,	22,	61,	47,	-1,	-1,	-1,	-1,	4,	11,	36,	34,	50,	37,	24,	26,	-1,	64,	-1,	27,	46,	44,	52,	-1,	-1,	-1,	-1,	-1,	1,	-1,	8,	41,	-1,	-1,	-1,	-1,	-1,	-1,	-1,	55,	-1,	-1,	-1,	-1,	-1,	39,	-1,	-1,	58,	-1,	-1,	-1,	-1,	7,	29|
-1,	-1,	-1,	11,	40,	-1,	8,	-1,	62,	-1,	37,	-1,	-1,	-1,	43,	1,	-1,	47,	-1,	-1,	-1,	-1,	52,	18,	-1,	-1,	-1,	23,	33,	-1,	-1,	-1,	39,	14,	31,	-1,	22,	-1,	-1,	-1,	46,	-1,	-1,	-1,	29,	-1,	24,	-1,	-1,	-1,	63,	54,	-1,	-1,	13,	30,	19,	6,	44,	51,	64,	-1,	42,	34|
-1,	47,	-1,	-1,	60,	-1,	21,	45,	-1,	-1,	-1,	23,	64,	46,	-1,	-1,	57,	38,	42,	-1,	-1,	39,	53,	54,	25,	37,	-1,	-1,	5,	-1,	-1,	-1,	-1,	-1,	43,	-1,	-1,	-1,	51,	-1,	-1,	31,	-1,	2,	35,	6,	52,	-1,	-1,	8,	61,	-1,	-1,	-1,	17,	-1,	-1,	48,	-1,	-1,	-1,	-1,	-1,	-1|
-1,	-1,	24,	52,	-1,	-1,	-1,	57,	-1,	55,	-1,	-1,	39,	20,	12,	15,	-1,	-1,	28,	-1,	-1,	-1,	56,	62,	3,	61,	48,	-1,	1,	29,	-1,	53,	17,	2,	5,	-1,	-1,	38,	-1,	50,	33,	22,	-1,	-1,	30,	14,	37,	-1,	-1,	-1,	35,	60,	-1,	-1,	18,	47,	16,	-1,	-1,	-1,	45,	-1,	40,	-1|
3,	-1,	49,	37,	20,	48,	-1,	-1,	25,	38,	63,	-1,	51,	24,	7,	8,	13,	-1,	15,	-1,	-1,	-1,	46,	-1,	-1,	35,	22,	17,	42,	30,	11,	34,	-1,	47,	32,	-1,	-1,	-1,	-1,	-1,	9,	59,	-1,	5,	-1,	19,	27,	18,	26,	2,	-1,	62,	29,	-1,	-1,	-1,	39,	-1,	31,	14,	-1,	10,	-1,	-1|
-1,	-1,	43,	46,	26,	-1,	-1,	34,	52,	57,	-1,	5,	-1,	11,	-1,	-1,	-1,	-1,	-1,	61,	40,	-1,	-1,	-1,	-1,	41,	-1,	51,	8,	-1,	-1,	45,	25,	-1,	-1,	-1,	-1,	58,	-1,	-1,	48,	44,	-1,	-1,	23,	-1,	-1,	1,	49,	42,	24,	-1,	-1,	20,	36,	-1,	47,	-1,	-1,	-1,	-1,	30,	2,	55|
-1,	-1,	18,	-1,	54,	9,	-1,	5,	45,	30,	-1,	-1,	-1,	53,	41,	-1,	32,	-1,	-1,	8,	-1,	20,	-1,	35,	-1,	-1,	-1,	21,	-1,	4,	-1,	47,	-1,	61,	52,	-1,	13,	-1,	57,	-1,	-1,	-1,	-1,	51,	-1,	25,	40,	7,	31,	-1,	1,	44,	27,	-1,	16,	11,	23,	-1,	12,	-1,	50,	43,	17,	36|
-1,	-1,	-1,	-1,	13,	50,	23,	-1,	21,	-1,	29,	-1,	14,	-1,	-1,	16,	-1,	31,	5,	-1,	2,	-1,	26,	17,	39,	-1,	-1,	60,	28,	-1,	55,	57,	46,	-1,	24,	-1,	30,	-1,	-1,	-1,	-1,	11,	62,	47,	61,	-1,	-1,	-1,	52,	48,	53,	-1,	-1,	40,	-1,	-1,	-1,	63,	-1,	20,	25,	-1,	-1,	33|
-1,	-1,	-1,	-1,	64,	-1,	-1,	24,	-1,	9,	-1,	-1,	57,	-1,	-1,	51,	33,	-1,	38,	14,	-1,	3,	-1,	-1,	-1,	-1,	60,	56,	32,	44,	25,	-1,	22,	-1,	-1,	18,	50,	-1,	-1,	-1,	-1,	21,	-1,	-1,	-1,	15,	-1,	23,	45,	6,	42,	17,	-1,	-1,	59,	12,	-1,	-1,	7,	48,	46,	63,	39,	-1|
33,	60,	7,	20,	-1,	-1,	47,	29,	64,	52,	-1,	63,	62,	-1,	-1,	-1,	6,	-1,	30,	-1,	32,	40,	59,	22,	-1,	28,	-1,	58,	-1,	-1,	-1,	-1,	36,	43,	-1,	44,	27,	16,	13,	-1,	49,	56,	-1,	11,	3,	34,	55,	-1,	54,	18,	-1,	-1,	-1,	-1,	-1,	26,	42,	41,	51,	-1,	38,	-1,	-1,	-1|
-1,	50,	13,	-1,	-1,	18,	1,	54,	38,	-1,	47,	-1,	46,	59,	-1,	22,	-1,	-1,	-1,	-1,	-1,	10,	51,	-1,	23,	12,	-1,	-1,	20,	36,	24,	-1,	42,	-1,	-1,	31,	-1,	7,	-1,	-1,	25,	-1,	9,	53,	26,	32,	-1,	57,	35,	-1,	44,	-1,	33,	-1,	-1,	-1,	-1,	-1,	-1,	49,	-1,	-1,	-1,	-1|
-1,	62,	-1,	-1,	63,	16,	-1,	-1,	60,	-1,	-1,	27,	-1,	-1,	40,	26,	-1,	-1,	49,	42,	-1,	19,	36,	-1,	34,	-1,	-1,	10,	35,	-1,	52,	-1,	-1,	-1,	25,	-1,	20,	-1,	46,	64,	-1,	-1,	-1,	31,	45,	43,	-1,	24,	-1,	14,	55,	-1,	-1,	38,	-1,	-1,	21,	29,	-1,	61,	-1,	12,	-1,	-1|
51,	44,	-1,	-1,	17,	-1,	-1,	14,	10,	-1,	-1,	16,	-1,	-1,	-1,	-1,	58,	26,	-1,	-1,	37,	-1,	20,	41,	9,	8,	-1,	15,	-1,	62,	39,	43,	56,	63,	45,	2,	-1,	49,	33,	-1,	-1,	-1,	-1,	42,	-1,	59,	36,	-1,	19,	5,	30,	27,	-1,	-1,	23,	13,	-1,	60,	18,	6,	47,	57,	-1,	25|
27,	-1,	61,	12,	28,	-1,	53,	-1,	-1,	21,	17,	35,	-1,	-1,	14,	-1,	29,	-1,	64,	-1,	-1,	7,	-1,	44,	59,	33,	16,	26,	47,	-1,	-1,	-1,	-1,	19,	-1,	24,	-1,	37,	-1,	3,	20,	58,	-1,	-1,	40,	18,	5,	-1,	-1,	4,	60,	2,	43,	-1,	-1,	31,	-1,	13,	36,	-1,	-1,	-1,	32,	-1|
45,	25,	-1,	-1,	36,	49,	-1,	31,	-1,	-1,	-1,	42,	-1,	19,	44,	-1,	23,	-1,	-1,	-1,	55,	60,	39,	1,	41,	-1,	11,	-1,	40,	27,	-1,	-1,	-1,	53,	-1,	5,	-1,	28,	10,	9,	14,	-1,	-1,	54,	17,	-1,	62,	-1,	-1,	7,	-1,	-1,	-1,	46,	-1,	48,	-1,	56,	-1,	-1,	-1,	-1,	16,	22|
-1,	5,	19,	-1,	9,	52,	46,	-1,	-1,	-1,	-1,	15,	-1,	23,	-1,	43,	11,	35,	25,	28,	47,	-1,	54,	31,	53,	51,	6,	37,	22,	45,	57,	42,	-1,	8,	-1,	48,	-1,	30,	12,	14,	13,	-1,	29,	-1,	-1,	16,	60,	-1,	-1,	-1,	-1,	-1,	32,	-1,	64,	-1,	-1,	-1,	34,	-1,	44,	-1,	59,	26|
26,	45,	30,	-1,	-1,	56,	-1,	48,	44,	17,	-1,	36,	-1,	47,	16,	-1,	2,	-1,	35,	23,	-1,	-1,	-1,	49,	-1,	13,	-1,	38,	7,	-1,	32,	-1,	12,	25,	-1,	22,	-1,	10,	50,	-1,	42,	19,	28,	9,	63,	-1,	-1,	14,	41,	3,	-1,	-1,	-1,	-1,	-1,	57,	20,	59,	55,	-1,	8,	-1,	-1,	-1|
34,	7,	-1,	40,	58,	-1,	-1,	-1,	-1,	-1,	60,	51,	10,	12,	57,	52,	44,	42,	37,	24,	59,	29,	-1,	-1,	-1,	23,	14,	43,	41,	22,	21,	61,	26,	13,	63,	-1,	47,	-1,	38,	-1,	-1,	54,	-1,	-1,	5,	36,	-1,	-1,	-1,	-1,	6,	-1,	50,	18,	-1,	-1,	48,	-1,	-1,	25,	35,	46,	64,	-1|
36,	61,	-1,	55,	43,	-1,	-1,	-1,	3,	26,	-1,	19,	13,	2,	15,	-1,	-1,	10,	-1,	39,	-1,	64,	-1,	45,	20,	63,	27,	-1,	-1,	18,	-1,	-1,	-1,	-1,	-1,	17,	4,	-1,	-1,	-1,	62,	35,	23,	-1,	34,	44,	29,	60,	-1,	12,	54,	-1,	38,	-1,	21,	8,	-1,	50,	22,	41,	-1,	37,	-1,	-1|
13,	53,	27,	31,	51,	-1,	35,	12,	-1,	14,	-1,	41,	30,	37,	20,	29,	-1,	46,	6,	50,	25,	-1,	62,	34,	17,	19,	-1,	-1,	-1,	-1,	-1,	-1,	-1,	-1,	-1,	28,	-1,	-1,	-1,	-1,	45,	39,	-1,	-1,	22,	-1,	-1,	59,	-1,	-1,	64,	10,	-1,	-1,	-1,	-1,	60,	42,	-1,	-1,	56,	-1,	-1,	54|
9,	-1,	23,	21,	-1,	-1,	17,	-1,	61,	-1,	-1,	54,	-1,	43,	-1,	-1,	-1,	-1,	7,	-1,	-1,	11,	18,	3,	12,	48,	-1,	30,	-1,	-1,	-1,	-1,	-1,	35,	57,	-1,	-1,	31,	-1,	58,	2,	47,	-1,	10,	55,	37,	25,	38,	-1,	-1,	27,	-1,	-1,	14,	49,	59,	15,	19,	-1,	-1,	5,	33,	24,	-1|
-1,	19,	-1,	24,	-1,	-1,	-1,	50,	-1,	35,	21,	48,	-1,	-1,	-1,	59,	-1,	33,	57,	15,	-1,	8,	-1,	-1,	58,	31,	55,	5,	-1,	-1,	9,	-1,	49,	64,	-1,	53,	29,	-1,	-1,	23,	18,	-1,	43,	-1,	-1,	-1,	-1,	-1,	-1,	25,	46,	-1,	63,	11,	47,	7,	-1,	-1,	16,	-1,	-1,	-1,	12,	-1|
-1,	18,	42,	33,	38,	-1,	-1,	-1,	-1,	63,	-1,	-1,	58,	-1,	56,	5,	-1,	-1,	26,	-1,	-1,	1,	-1,	19,	28,	46,	29,	59,	54,	-1,	-1,	16,	44,	-1,	7,	-1,	45,	15,	8,	32,	27,	3,	-1,	-1,	50,	12,	-1,	-1,	36,	-1,	-1,	-1,	37,	-1,	-1,	35,	30,	57,	-1,	-1,	31,	47,	23,	-1|
47,	-1,	-1,	-1,	-1,	-1,	63,	-1,	23,	45,	-1,	50,	-1,	7,	-1,	49,	-1,	28,	-1,	-1,	38,	55,	-1,	-1,	35,	25,	-1,	-1,	51,	-1,	-1,	-1,	6,	-1,	11,	-1,	-1,	-1,	-1,	34,	16,	41,	64,	15,	-1,	40,	57,	30,	56,	17,	-1,	-1,	24,	19,	33,	-1,	27,	53,	-1,	29,	-1,	-1,	61,	13|
-1,	15,	-1,	51,	-1,	58,	-1,	61,	31,	8,	-1,	-1,	16,	44,	-1,	-1,	9,	64,	-1,	41,	4,	-1,	-1,	12,	-1,	-1,	24,	-1,	43,	37,	22,	40,	-1,	55,	-1,	3,	14,	-1,	19,	-1,	29,	-1,	-1,	59,	13,	26,	-1,	48,	20,	-1,	-1,	-1,	54,	-1,	-1,	36,	-1,	-1,	-1,	-1,	-1,	-1,	-1,	60|
24,	-1,	-1,	22,	-1,	-1,	44,	30,	19,	-1,	-1,	3,	-1,	-1,	33,	58,	-1,	11,	13,	35,	42,	-1,	-1,	-1,	7,	29,	28,	-1,	-1,	-1,	-1,	-1,	21,	17,	15,	-1,	-1,	57,	-1,	-1,	1,	9,	-1,	-1,	-1,	-1,	43,	37,	-1,	64,	-1,	16,	-1,	-1,	61,	-1,	-1,	23,	-1,	-1,	-1,	38,	-1,	2|
14,	-1,	-1,	45,	-1,	-1,	-1,	-1,	-1,	43,	6,	7,	-1,	38,	-1,	-1,	-1,	-1,	55,	5,	39,	-1,	-1,	23,	-1,	42,	62,	47,	15,	9,	12,	-1,	-1,	-1,	-1,	-1,	-1,	22,	-1,	-1,	-1,	-1,	40,	-1,	24,	33,	-1,	-1,	11,	-1,	-1,	35,	-1,	-1,	-1,	51,	49,	25,	-1,	-1,	-1,	64,	-1,	-1|
16,	39,	-1,	-1,	10,	26,	11,	2,	29,	-1,	-1,	-1,	-1,	18,	-1,	-1,	-1,	60,	-1,	-1,	-1,	45,	-1,	-1,	14,	59,	-1,	53,	-1,	-1,	-1,	-1,	4,	-1,	64,	1,	33,	-1,	-1,	28,	52,	61,	-1,	-1,	54,	3,	-1,	-1,	8,	62,	13,	46,	30,	44,	19,	9,	22,	-1,	-1,	-1,	21,	7,	-1,	-1|
-1,	36,	64,	-1,	-1,	-1,	-1,	52,	49,	-1,	-1,	-1,	56,	9,	51,	30,	-1,	-1,	-1,	10,	33,	43,	24,	-1,	-1,	-1,	-1,	-1,	-1,	-1,	31,	55,	61,	54,	-1,	29,	-1,	-1,	-1,	48,	11,	-1,	4,	-1,	-1,	23,	20,	-1,	53,	-1,	-1,	26,	28,	-1,	42,	-1,	-1,	12,	27,	44,	-1,	13,	-1,	-1|
-1,	-1,	-1,	29,	-1,	-1,	18,	-1,	-1,	-1,	28,	64,	-1,	-1,	-1,	57,	17,	22,	40,	52,	-1,	-1,	-1,	25,	-1,	21,	1,	63,	-1,	-1,	8,	-1,	51,	5,	-1,	-1,	37,	23,	-1,	-1,	-1,	49,	-1,	19,	38,	-1,	10,	-1,	58,	-1,	-1,	32,	-1,	24,	7,	4,	50,	31,	-1,	-1,	43,	54,	-1,	-1|
49,	-1,	-1,	17,	42,	-1,	-1,	-1,	-1,	-1,	61,	-1,	-1,	-1,	-1,	-1,	51,	-1,	-1,	1,	-1,	37,	-1,	-1,	-1,	10,	54,	-1,	-1,	-1,	36,	23,	-1,	-1,	-1,	35,	18,	-1,	-1,	30,	64,	27,	22,	62,	-1,	-1,	53,	55,	43,	63,	-1,	29,	5,	12,	25,	33,	-1,	40,	-1,	58,	59,	-1,	26,	-1|
50,	-1,	-1,	9,	-1,	27,	43,	53,	-1,	-1,	35,	37,	26,	-1,	-1,	34,	-1,	-1,	59,	-1,	-1,	-1,	29,	30,	-1,	-1,	-1,	44,	-1,	-1,	13,	-1,	-1,	39,	46,	-1,	16,	-1,	40,	38,	-1,	28,	-1,	-1,	-1,	42,	-1,	17,	23,	31,	15,	55,	60,	-1,	-1,	-1,	61,	-1,	47,	10,	24,	19,	48,	18|
-1,	-1,	-1,	54,	24,	20,	-1,	-1,	-1,	-1,	-1,	-1,	63,	-1,	-1,	23,	10,	18,	-1,	25,	-1,	-1,	-1,	11,	-1,	50,	42,	14,	-1,	-1,	53,	48,	7,	-1,	-1,	-1,	-1,	-1,	-1,	47,	19,	45,	39,	-1,	1,	22,	-1,	-1,	21,	-1,	-1,	-1,	-1,	-1,	-1,	-1,	33,	-1,	-1,	56,	2,	29,	-1,	5|
21,	52,	50,	5,	-1,	22,	10,	28,	-1,	61,	56,	39,	54,	36,	-1,	-1,	37,	-1,	-1,	-1,	-1,	24,	63,	-1,	-1,	-1,	-1,	-1,	17,	-1,	41,	30,	-1,	49,	26,	-1,	-1,	44,	60,	-1,	51,	57,	58,	20,	-1,	-1,	48,	-1,	-1,	33,	62,	-1,	-1,	-1,	29,	46,	-1,	-1,	59,	47,	18,	34,	31,	-1|
-1,	-1,	-1,	19,	-1,	36,	14,	-1,	-1,	51,	58,	49,	-1,	10,	-1,	25,	-1,	-1,	-1,	64,	5,	15,	22,	60,	62,	-1,	61,	45,	12,	-1,	33,	-1,	28,	-1,	42,	57,	34,	40,	3,	31,	-1,	-1,	41,	63,	-1,	17,	35,	-1,	48,	20,	-1,	-1,	44,	30,	-1,	50,	26,	-1,	-1,	24,	6,	21,	-1,	39|
-1,	48,	-1,	-1,	-1,	7,	-1,	-1,	13,	42,	18,	34,	-1,	-1,	3,	37,	31,	-1,	-1,	40,	26,	49,	-1,	-1,	-1,	-1,	-1,	8,	9,	-1,	20,	21,	-1,	-1,	-1,	-1,	-1,	-1,	-1,	5,	-1,	-1,	-1,	30,	-1,	-1,	14,	-1,	47,	19,	-1,	-1,	-1,	57,	-1,	-1,	32,	54,	-1,	-1,	1,	-1,	-1,	-1|
-1,	-1,	6,	-1,	-1,	34,	-1,	-1,	-1,	31,	41,	9,	-1,	5,	-1,	-1,	43,	-1,	-1,	-1,	-1,	-1,	-1,	-1,	-1,	-1,	25,	-1,	29,	35,	7,	46,	52,	-1,	53,	-1,	36,	51,	18,	-1,	37,	38,	55,	-1,	-1,	-1,	56,	40,	-1,	26,	-1,	61,	42,	45,	4,	64,	11,	-1,	30,	17,	14,	-1,	-1,	-1|
-1,	30,	16,	27,	31,	46,	-1,	-1,	40,	29,	14,	-1,	-1,	28,	48,	11,	-1,	41,	53,	57,	-1,	-1,	44,	-1,	-1,	-1,	49,	1,	38,	59,	26,	-1,	55,	4,	20,	50,	19,	2,	-1,	-1,	54,	24,	21,	64,	-1,	52,	6,	-1,	-1,	51,	-1,	58,	15,	-1,	-1,	39,	-1,	-1,	-1,	-1,	37,	-1,	36,	7|
-1,	59,	-1,	62,	41,	40,	42,	-1,	17,	33,	26,	32,	-1,	-1,	-1,	21,	46,	39,	8,	54,	51,	-1,	4,	6,	-1,	-1,	13,	-1,	-1,	-1,	64,	-1,	24,	10,	30,	-1,	23,	-1,	-1,	25,	-1,	-1,	49,	-1,	2,	-1,	31,	-1,	60,	1,	-1,	-1,	-1,	5,	35,	27,	57,	28,	61,	-1,	-1,	-1,	63,	12|
1,	51,	29,	-1,	-1,	17,	-1,	11,	-1,	46,	-1,	44,	-1,	57,	-1,	64,	-1,	3,	-1,	-1,	-1,	-1,	32,	-1,	24,	-1,	10,	-1,	63,	-1,	-1,	-1,	-1,	-1,	-1,	-1,	38,	-1,	45,	-1,	4,	-1,	5,	8,	-1,	-1,	50,	-1,	-1,	43,	23,	-1,	36,	53,	14,	18,	-1,	-1,	58,	-1,	-1,	48,	27,	52|
60,	24,	2,	-1,	-1,	-1,	52,	-1,	26,	25,	31,	-1,	-1,	8,	58,	36,	35,	-1,	-1,	11,	53,	-1,	-1,	15,	57,	-1,	20,	16,	-1,	38,	29,	-1,	9,	-1,	61,	-1,	64,	-1,	1,	19,	63,	12,	18,	28,	-1,	-1,	13,	-1,	-1,	-1,	14,	42,	51,	-1,	-1,	45,	-1,	-1,	-1,	-1,	40,	-1,	-1,	-1|
-1,	58,	-1,	47,	50,	-1,	-1,	22,	43,	-1,	38,	-1,	-1,	27,	11,	-1,	-1,	-1,	-1,	-1,	28,	30,	-1,	59,	45,	9,	40,	33,	-1,	56,	49,	-1,	-1,	37,	-1,	-1,	53,	34,	39,	-1,	36,	-1,	-1,	-1,	-1,	-1,	-1,	-1,	-1,	54,	-1,	-1,	26,	-1,	-1,	44,	-1,	-1,	35,	32,	-1,	6,	15,	10|
46,	-1,	-1,	28,	-1,	59,	38,	-1,	57,	-1,	-1,	-1,	37,	-1,	30,	32,	-1,	-1,	61,	-1,	64,	-1,	-1,	52,	-1,	5,	-1,	50,	26,	58,	51,	-1,	31,	-1,	-1,	27,	-1,	43,	-1,	63,	-1,	6,	-1,	40,	49,	10,	-1,	29,	3,	11,	-1,	4,	-1,	-1,	-1,	-1,	-1,	-1,	25,	-1,	-1,	-1,	-1,	16|
-1,	21,	-1,	36,	-1,	-1,	45,	-1,	5,	-1,	-1,	29,	9,	-1,	28,	-1,	-1,	-1,	-1,	-1,	7,	56,	-1,	37,	13,	44,	52,	32,	-1,	-1,	-1,	-1,	-1,	-1,	6,	30,	-1,	8,	-1,	42,	-1,	48,	-1,	-1,	19,	-1,	-1,	-1,	39,	16,	-1,	41,	23,	60,	40,	-1,	51,	-1,	-1,	-1,	-1,	-1,	-1,	57|
-1,	-1,	48,	-1,	-1,	29,	30,	19,	-1,	34,	-1,	-1,	52,	-1,	-1,	-1,	-1,	25,	16,	44,	31,	5,	-1,	-1,	42,	1,	23,	-1,	-1,	-1,	-1,	27,	-1,	32,	-1,	26,	35,	12,	2,	-1,	56,	64,	59,	-1,	11,	60,	46,	-1,	-1,	24,	-1,	-1,	49,	50,	37,	58,	36,	-1,	-1,	-1,	-1,	3,	-1,	20|
62,	-1,	17,	7,	57,	14,	61,	-1,	-1,	-1,	-1,	55,	-1,	40,	-1,	-1,	38,	-1,	-1,	18,	50,	-1,	3,	-1,	-1,	6,	47,	24,	37,	-1,	-1,	54,	16,	44,	-1,	11,	25,	52,	36,	21,	43,	26,	32,	45,	-1,	20,	41,	-1,	30,	-1,	-1,	-1,	-1,	15,	-1,	53,	-1,	-1,	-1,	27,	34,	28,	-1,	-1|
-1,	-1,	-1,	49,	32,	-1,	-1,	-1,	-1,	-1,	-1,	10,	-1,	-1,	62,	-1,	-1,	8,	-1,	6,	-1,	-1,	23,	-1,	-1,	-1,	-1,	-1,	-1,	-1,	-1,	35,	-1,	-1,	-1,	-1,	3,	-1,	24,	29,	30,	-1,	-1,	-1,	14,	-1,	22,	54,	61,	-1,	-1,	52,	-1,	-1,	-1,	5,	1,	-1,	19,	-1,	-1,	-1,	47,	58|
-1,	11,	-1,	43,	-1,	-1,	16,	-1,	18,	24,	-1,	45,	6,	41,	60,	47,	22,	-1,	4,	48,	-1,	-1,	58,	32,	61,	3,	19,	-1,	-1,	21,	-1,	17,	-1,	-1,	-1,	-1,	-1,	20,	28,	15,	57,	-1,	35,	44,	53,	-1,	-1,	-1,	29,	-1,	-1,	-1,	64,	34,	-1,	25,	59,	-1,	52,	-1,	-1,	-1,	-1,	30|
17,	-1,	-1,	3,	-1,	28,	-1,	7,	-1,	-1,	-1,	13,	50,	26,	-1,	-1,	-1,	1,	-1,	-1,	57,	-1,	38,	-1,	-1,	45,	8,	64,	-1,	-1,	56,	-1,	-1,	29,	-1,	-1,	-1,	-1,	53,	37,	-1,	62,	46,	-1,	18,	-1,	23,	-1,	15,	41,	47,	-1,	35,	36,	12,	61,	-1,	43,	-1,	-1,	-1,	59,	-1,	-1|
-1,	-1,	41,	25,	2,	-1,	50,	-1,	54,	-1,	55,	22,	11,	-1,	53,	-1,	4,	59,	-1,	37,	24,	42,	-1,	-1,	29,	32,	-1,	-1,	6,	43,	15,	-1,	20,	9,	35,	21,	10,	33,	5,	-1,	-1,	51,	27,	-1,	-1,	-1,	-1,	-1,	-1,	49,	57,	3,	-1,	-1,	-1,	-1,	-1,	-1,	14,	-1,	63,	16,	-1,	46|
-1,	46,	51,	-1,	-1,	-1,	31,	-1,	32,	-1,	-1,	-1,	-1,	64,	-1,	-1,	61,	6,	47,	33,	18,	-1,	-1,	-1,	-1,	-1,	-1,	-1,	19,	48,	-1,	22,	-1,	28,	54,	-1,	-1,	-1,	-1,	-1,	50,	29,	44,	16,	-1,	-1,	-1,	-1,	-1,	34,	-1,	14,	20,	52,	-1,	55,	53,	-1,	4,	-1,	-1,	-1,	9,	38|
8,	14,	9,	-1,	6,	15,	27,	-1,	33,	-1,	46,	-1,	28,	-1,	18,	-1,	-1,	48,	-1,	-1,	44,	-1,	-1,	53,	38,	-1,	34,	35,	23,	-1,	-1,	62,	47,	-1,	22,	-1,	-1,	42,	64,	61,	-1,	-1,	36,	-1,	57,	-1,	-1,	-1,	7,	10,	29,	19,	-1,	-1,	43,	-1,	13,	1,	-1,	-1,	12,	2,	5,	-1|
55,	-1,	56,	-1,	-1,	4,	-1,	-1,	47,	-1,	-1,	-1,	24,	-1,	-1,	-1,	-1,	34,	50,	19,	-1,	22,	-1,	10,	-1,	-1,	51,	-1,	21,	16,	-1,	-1,	-1,	-1,	-1,	23,	-1,	-1,	7,	13,	38,	-1,	-1,	-1,	-1,	-1,	-1,	33,	2,	-1,	18,	64,	1,	-1,	-1,	-1,	6,	-1,	-1,	57,	-1,	61,	-1,	-1|
-1,	-1,	35,	-1,	61,	-1,	-1,	-1,	42,	-1,	40,	-1,	15,	21,	-1,	-1,	-1,	56,	41,	-1,	-1,	-1,	-1,	-1,	-1,	17,	-1,	-1,	-1,	33,	46,	-1,	45,	-1,	1,	38,	-1,	-1,	62,	6,	-1,	5,	-1,	-1,	-1,	63,	-1,	52,	-1,	60,	-1,	9,	58,	13,	24,	-1,	55,	-1,	-1,	28,	39,	-1,	-1,	47|
58,	54,	-1,	-1,	33,	30,	-1,	32,	34,	37,	9,	-1,	4,	-1,	29,	-1,	39,	21,	-1,	-1,	15,	-1,	17,	-1,	40,	-1,	-1,	-1,	-1,	-1,	28,	20,	8,	-1,	12,	-1,	31,	3,	11,	16,	-1,	-1,	61,	6,	-1,	1,	-1,	-1,	5,	-1,	50,	23,	45,	-1,	44,	-1,	-1,	-1,	-1,	-1,	-1,	-1,	-1,	-1|
-1,	20,	-1,	-1,	-1,	38,	37,	62,	-1,	19,	-1,	12,	7,	35,	-1,	44,	-1,	30,	54,	46,	-1,	23,	64,	-1,	-1,	47,	-1,	-1,	-1,	-1,	5,	-1,	-1,	-1,	-1,	-1,	48,	36,	-1,	-1,	-1,	-1,	3,	-1,	-1,	53,	-1,	-1,	-1,	-1,	33,	-1,	39,	-1,	6,	16,	24,	-1,	-1,	-1,	-1,	-1,	-1,	-1|
52,	49,	63,	50,	12,	6,	-1,	-1,	-1,	7,	-1,	-1,	-1,	22,	-1,	17,	54,	36,	32,	16,	-1,	48,	30,	13,	37,	-1,	-1,	-1,	14,	-1,	27,	-1,	-1,	-1,	-1,	-1,	39,	11,	25,	-1,	59,	34,	-1,	-1,	-1,	-1,	-1,	-1,	-1,	40,	38,	47,	62,	29,	53,	21,	58,	-1,	-1,	-1,	51,	-1,	33,	42|
37,	-1,	-1,	48,	-1,	-1,	-1,	-1,	20,	-1,	-1,	-1,	61,	49,	-1,	-1,	50,	-1,	-1,	-1,	-1,	-1,	15,	26,	-1,	22,	-1,	-1,	-1,	51,	30,	9,	29,	-1,	56,	-1,	-1,	-1,	-1,	-1,	-1,	23,	42,	33,	7,	54,	38,	-1,	6,	44,	-1,	-1,	-1,	-1,	-1,	-1,	17,	55,	-1,	-1,	-1,	-1,	46,	43|
-1,	-1,	58,	42,	-1,	-1,	-1,	17,	-1,	64,	52,	57,	25,	-1,	-1,	55,	-1,	29,	-1,	-1,	22,	6,	-1,	-1,	-1,	43,	63,	-1,	-1,	-1,	54,	59,	50,	12,	-1,	9,	51,	-1,	23,	-1,	-1,	37,	11,	1,	47,	-1,	4,	-1,	-1,	30,	-1,	36,	2,	26,	20,	10,	35,	27,	13,	-1,	-1,	-1,	21,	-1|
-1,	28,	-1,	-1,	16,	-1,	-1,	-1,	8,	-1,	53,	-1,	35,	54,	39,	-1,	42,	51,	-1,	47,	-1,	-1,	-1,	-1,	21,	34,	57,	-1,	-1,	-1,	-1,	-1,	-1,	-1,	-1,	58,	2,	-1,	55,	43,	22,	14,	-1,	-1,	-1,	49,	-1,	20,	9,	23,	41,	-1,	61,	32,	-1,	-1,	-1,	37,	50,	40,	-1,	-1,	25,	-1|
43,	-1,	-1,	14,	46,	-1,	-1,	-1,	-1,	11,	-1,	-1,	19,	-1,	-1,	-1,	62,	-1,	-1,	58,	-1,	-1,	60,	9,	-1,	40,	-1,	-1,	-1,	-1,	-1,	-1,	1,	27,	44,	-1,	-1,	6,	34,	45,	61,	55,	-1,	21,	64,	-1,	12,	16,	33,	35,	52,	-1,	8,	-1,	51,	3,	-1,	22,	-1,	-1,	-1,	-1,	53,	-1|
-1,	27,	21,	-1,	22,	-1,	-1,	10,	-1,	-1,	43,	1,	-1,	29,	26,	2,	-1,	44,	46,	56,	-1,	-1,	57,	39,	31,	-1,	-1,	62,	-1,	25,	-1,	33,	40,	36,	3,	-1,	-1,	-1,	-1,	-1,	6,	13,	-1,	50,	-1,	-1,	15,	-1,	-1,	-1,	17,	49,	-1,	58,	-1,	-1,	-1,	-1,	-1,	8,	-1,	-1,	52,	-1|
-1,	-1,	53,	8,	47,	19,	9,	-1,	30,	4,	10,	-1,	33,	16,	-1,	-1,	-1,	2,	18,	43,	-1,	-1,	31,	-1,	-1,	-1,	38,	13,	-1,	-1,	-1,	58,	35,	-1,	14,	-1,	-1,	-1,	-1,	-1,	-1,	-1,	-1,	26,	-1,	56,	17,	27,	-1,	57,	12,	37,	48,	-1,	-1,	24,	-1,	-1,	64,	36,	-1,	-1,	-1,	61|
-1,	3,	62,	-1,	15,	-1,	-1,	-1,	48,	-1,	-1,	31,	-1,	50,	27,	-1,	-1,	-1,	-1,	53,	-1,	-1,	-1,	-1,	-1,	24,	-1,	55,	60,	42,	1,	32,	-1,	-1,	13,	-1,	61,	21,	49,	-1,	35,	-1,	8,	29,	44,	58,	9,	25,	14,	28,	45,	-1,	22,	-1,	-1,	-1,	12,	47,	-1,	16,	-1,	39,	-1,	-1|];
