sudoku-ls/benchmarks_LEQ/INST_64x64/50/inst64x64_50_12.txt
8
1
-1	12	-1	-1	-1	-1	-1	-1	-1	-1	-1	61	-1	31	-1	9	-1	-1	-1	-1	-1	50	37	-1	26	62	-1	40	-1	46	44	-1	33	-1	-1	-1	-1	-1	48	-1	41	-1	45	43	-1	-1	-1	-1	-1	-1	-1	-1	57	-1	39	-1	-1	-1	-1	-1	-1	32	-1	29
4	-1	-1	11	-1	-1	-1	-1	62	-1	-1	26	17	3	-1	-1	-1	47	-1	-1	-1	-1	-1	18	15	56	-1	23	33	7	-1	38	39	-1	-1	45	-1	35	-1	-1	-1	53	12	-1	-1	57	24	49	25	-1	-1	54	-1	21	-1	-1	19	-1	-1	51	64	5	-1	-1
-1	-1	-1	16	-1	33	-1	-1	59	-1	-1	23	-1	-1	34	18	57	38	42	30	29	39	53	54	25	-1	-1	-1	-1	-1	-1	-1	11	3	43	36	9	-1	51	40	10	-1	15	2	35	-1	52	-1	12	-1	61	-1	-1	-1	-1	-1	28	-1	-1	26	-1	62	-1	1
10	-1	-1	-1	-1	-1	-1	-1	-1	55	-1	58	39	20	-1	15	25	23	28	59	-1	63	-1	62	-1	61	-1	-1	-1	29	43	53	-1	2	5	-1	-1	38	-1	-1	-1	-1	26	32	30	14	37	-1	-1	46	35	-1	34	-1	-1	47	-1	-1	-1	-1	45	41	-1	8
-1	-1	49	-1	20	48	36	55	-1	38	-1	-1	-1	-1	-1	-1	13	43	15	-1	-1	44	-1	-1	50	35	-1	17	42	-1	-1	-1	-1	47	-1	41	28	-1	54	-1	-1	-1	-1	5	16	-1	27	-1	26	2	-1	62	29	-1	-1	56	39	52	31	-1	-1	10	-1	-1
53	17	-1	46	26	35	-1	34	-1	-1	-1	5	60	11	-1	54	64	9	-1	-1	-1	21	-1	-1	10	-1	31	51	8	-1	-1	45	-1	7	-1	63	-1	-1	27	56	48	44	50	-1	23	-1	28	1	49	42	24	6	3	20	-1	19	47	15	38	59	-1	-1	-1	-1
-1	-1	-1	-1	-1	9	62	5	45	-1	19	-1	48	-1	-1	-1	32	58	3	-1	-1	20	49	-1	2	14	-1	21	24	4	-1	47	-1	-1	-1	10	13	29	-1	-1	-1	42	-1	-1	-1	-1	40	7	-1	-1	1	-1	27	33	16	-1	-1	-1	-1	-1	50	-1	17	-1
22	41	44	-1	-1	50	-1	15	-1	-1	29	4	-1	-1	35	16	-1	31	-1	-1	-1	-1	26	-1	39	-1	32	-1	28	6	55	-1	-1	-1	24	64	-1	19	59	-1	58	11	62	-1	-1	38	-1	-1	-1	48	-1	-1	9	40	-1	-1	37	63	-1	20	25	-1	-1	33
-1	10	40	-1	64	43	-1	-1	-1	-1	-1	-1	-1	30	54	51	-1	53	38	-1	13	-1	27	-1	55	49	60	56	32	-1	25	-1	22	-1	4	-1	50	-1	29	-1	47	21	-1	35	28	15	2	23	-1	6	42	-1	16	8	-1	12	31	-1	7	-1	46	-1	-1	-1
33	-1	7	20	-1	-1	-1	29	64	-1	24	63	62	-1	31	-1	6	57	-1	-1	32	-1	-1	22	48	-1	2	58	-1	14	-1	5	36	43	21	-1	-1	16	-1	-1	-1	-1	-1	-1	3	-1	-1	-1	-1	18	25	39	-1	-1	15	-1	42	-1	-1	4	-1	50	1	-1
-1	-1	-1	30	-1	18	1	-1	38	6	47	-1	-1	59	37	22	-1	-1	56	-1	43	10	51	8	-1	12	-1	-1	20	36	24	-1	42	60	39	-1	-1	7	15	55	25	-1	9	53	-1	32	-1	57	-1	61	44	34	33	62	-1	29	14	2	5	49	58	27	-1	40
39	62	-1	-1	63	16	-1	6	60	-1	-1	27	5	-1	40	-1	-1	50	-1	-1	9	-1	36	48	34	-1	30	-1	-1	13	52	-1	-1	23	25	47	20	-1	-1	64	44	8	-1	31	-1	43	51	24	-1	-1	55	-1	-1	-1	11	-1	21	29	53	61	-1	-1	3	17
51	-1	-1	35	17	3	32	-1	10	53	-1	16	29	-1	55	-1	58	26	24	-1	37	34	20	-1	9	-1	-1	-1	-1	62	-1	-1	-1	63	-1	-1	54	49	-1	-1	12	7	38	-1	52	-1	-1	46	19	-1	30	27	-1	28	23	-1	-1	-1	-1	6	47	-1	11	25
-1	-1	-1	-1	-1	55	53	42	-1	-1	-1	35	-1	25	-1	-1	-1	-1	-1	-1	-1	7	45	-1	59	-1	16	26	-1	63	38	50	-1	-1	-1	-1	-1	37	-1	3	-1	58	-1	-1	40	18	-1	22	10	-1	60	2	43	-1	1	-1	-1	-1	-1	-1	-1	-1	32	-1
45	25	-1	-1	-1	49	-1	-1	-1	-1	34	-1	-1	19	-1	-1	-1	-1	-1	2	-1	-1	-1	1	41	-1	11	18	40	27	3	-1	-1	-1	-1	5	-1	28	10	-1	-1	30	-1	54	17	-1	-1	-1	24	-1	-1	-1	47	-1	52	-1	-1	56	43	33	15	35	16	-1
-1	5	19	2	9	52	-1	21	1	-1	7	15	3	23	49	43	11	-1	25	-1	47	61	-1	-1	53	-1	-1	37	22	45	57	-1	38	-1	17	-1	40	-1	-1	14	-1	33	-1	4	-1	16	60	-1	50	-1	-1	-1	32	-1	-1	-1	-1	62	-1	55	44	24	59	-1
-1	-1	30	-1	29	56	-1	48	-1	-1	-1	36	-1	-1	-1	27	2	-1	35	-1	54	51	-1	-1	6	-1	-1	-1	-1	1	-1	60	-1	-1	-1	-1	-1	10	50	24	-1	19	-1	9	-1	-1	-1	14	-1	3	39	53	-1	61	-1	-1	20	59	-1	18	8	-1	58	62
34	-1	3	-1	58	-1	20	-1	55	-1	60	-1	-1	-1	57	-1	44	42	37	24	59	-1	16	-1	56	-1	-1	43	41	22	21	-1	26	13	63	-1	47	-1	38	-1	8	-1	-1	17	5	-1	-1	-1	62	-1	6	-1	50	18	-1	-1	-1	39	-1	-1	35	46	64	-1
36	61	52	55	-1	57	-1	46	-1	26	25	-1	-1	-1	15	33	-1	10	-1	39	-1	-1	-1	-1	20	63	-1	-1	49	-1	-1	-1	-1	1	16	17	4	-1	-1	-1	-1	-1	23	58	34	-1	29	60	42	12	54	-1	38	31	-1	-1	-1	-1	22	-1	-1	-1	-1	-1
-1	53	-1	-1	-1	11	35	-1	-1	14	-1	41	30	-1	-1	-1	63	46	6	-1	-1	47	-1	-1	17	-1	33	52	57	15	-1	8	3	-1	-1	-1	-1	-1	-1	-1	45	39	24	48	22	7	26	59	-1	-1	64	10	-1	16	32	-1	-1	-1	-1	-1	56	-1	38	54
-1	-1	23	21	-1	41	17	8	-1	-1	4	54	-1	43	46	62	-1	32	7	-1	-1	-1	-1	3	12	-1	-1	30	-1	26	34	-1	60	-1	57	39	-1	31	56	-1	2	47	20	-1	55	-1	-1	-1	1	-1	27	-1	13	14	-1	59	15	-1	-1	63	5	33	-1	51
28	19	60	24	-1	39	54	50	-1	-1	21	-1	-1	6	-1	-1	-1	33	57	15	-1	8	-1	-1	-1	31	-1	-1	-1	-1	-1	36	-1	64	62	53	29	-1	-1	-1	18	1	43	-1	-1	51	32	56	-1	-1	-1	-1	-1	11	47	7	-1	-1	-1	3	17	-1	-1	45
25	18	-1	33	38	-1	22	-1	-1	-1	11	-1	58	34	56	5	-1	17	26	60	-1	1	-1	19	-1	-1	29	59	-1	-1	62	-1	44	20	7	40	-1	15	-1	32	27	-1	13	61	-1	12	-1	-1	-1	9	-1	-1	-1	-1	-1	35	30	57	10	52	-1	47	-1	4
-1	37	-1	-1	-1	-1	-1	-1	-1	-1	32	-1	-1	7	8	-1	-1	28	-1	-1	-1	-1	-1	-1	-1	-1	-1	42	-1	-1	-1	-1	6	-1	11	-1	43	46	52	-1	-1	-1	-1	15	-1	40	-1	30	56	17	-1	-1	24	-1	33	-1	27	-1	-1	-1	-1	14	-1	13
6	15	25	51	-1	-1	28	61	-1	-1	-1	53	-1	-1	23	-1	9	-1	2	-1	-1	18	-1	12	27	30	-1	-1	43	37	-1	40	-1	55	-1	-1	14	-1	-1	-1	29	46	-1	-1	-1	26	-1	-1	20	39	-1	1	54	-1	-1	36	-1	-1	-1	11	57	52	-1	60
-1	56	-1	-1	59	5	44	30	-1	32	54	-1	55	60	33	58	-1	-1	-1	-1	-1	46	34	-1	-1	-1	-1	-1	-1	50	-1	25	-1	-1	15	-1	-1	-1	-1	-1	1	-1	-1	14	-1	41	43	37	27	64	-1	-1	18	47	-1	-1	62	-1	-1	-1	4	-1	-1	-1
14	63	54	45	-1	8	-1	-1	27	-1	6	-1	20	38	-1	46	56	-1	55	5	39	-1	-1	-1	19	42	-1	-1	-1	9	-1	41	53	-1	36	-1	52	22	-1	-1	-1	-1	-1	-1	-1	-1	-1	-1	11	50	34	-1	17	-1	57	-1	-1	25	29	1	-1	-1	30	-1
-1	39	-1	23	-1	26	11	-1	29	-1	-1	25	-1	-1	17	-1	27	60	31	20	-1	45	-1	-1	-1	-1	5	53	-1	-1	35	-1	4	-1	-1	1	-1	-1	43	-1	-1	-1	-1	-1	54	3	34	32	8	-1	-1	46	-1	-1	19	9	-1	-1	37	-1	-1	7	-1	-1
-1	-1	64	-1	-1	-1	-1	-1	-1	5	59	-1	-1	-1	-1	-1	-1	-1	62	10	33	43	24	-1	18	-1	46	-1	45	-1	-1	-1	61	-1	8	29	60	-1	-1	48	11	50	4	25	39	23	20	58	53	21	-1	-1	28	-1	42	22	-1	12	27	-1	16	13	34	-1
-1	55	-1	-1	3	13	18	41	-1	47	-1	-1	-1	62	-1	-1	-1	22	-1	52	-1	-1	-1	25	33	-1	-1	-1	61	60	8	26	51	-1	-1	-1	37	-1	42	20	15	-1	-1	19	38	35	10	44	58	-1	59	32	-1	24	-1	-1	50	31	-1	39	43	54	-1	-1
49	34	-1	-1	-1	60	7	-1	41	39	-1	-1	-1	-1	13	24	-1	-1	44	-1	-1	37	21	50	-1	10	54	-1	-1	-1	36	-1	2	11	-1	-1	18	56	-1	30	-1	-1	-1	-1	-1	47	53	-1	-1	-1	-1	29	-1	-1	-1	-1	-1	40	-1	-1	-1	-1	26	-1
50	33	-1	-1	-1	27	-1	53	-1	-1	-1	37	-1	-1	-1	34	49	54	-1	-1	58	-1	29	30	4	52	-1	44	-1	-1	13	51	-1	-1	-1	6	-1	25	40	-1	5	28	-1	-1	-1	42	-1	17	-1	-1	-1	55	-1	2	-1	14	-1	-1	-1	-1	-1	19	-1	-1
15	26	-1	54	-1	20	-1	-1	16	62	30	-1	-1	55	-1	23	10	18	-1	25	-1	-1	61	-1	51	-1	42	-1	-1	34	-1	-1	-1	6	58	32	-1	13	-1	-1	19	45	-1	-1	1	22	-1	-1	21	-1	9	38	-1	-1	-1	49	-1	-1	40	-1	-1	-1	-1	5
21	52	50	-1	55	22	-1	-1	7	-1	56	-1	54	36	-1	-1	-1	-1	14	38	-1	24	63	2	-1	-1	3	6	-1	40	-1	30	64	-1	26	43	-1	44	60	-1	-1	-1	-1	20	9	27	48	-1	-1	33	62	-1	-1	-1	-1	-1	-1	4	-1	47	-1	-1	31	53
-1	-1	-1	-1	-1	36	14	-1	-1	-1	-1	49	-1	-1	38	25	52	55	-1	-1	-1	15	22	60	62	-1	61	-1	12	-1	-1	11	-1	56	42	-1	-1	-1	3	-1	7	-1	41	63	32	17	35	-1	48	-1	37	59	-1	-1	-1	50	26	16	-1	-1	-1	-1	13	39
-1	-1	45	-1	35	7	60	63	-1	42	18	34	2	52	-1	-1	31	62	58	40	26	-1	50	56	43	-1	44	8	9	-1	20	-1	-1	33	29	61	-1	17	16	-1	-1	-1	-1	-1	46	11	-1	12	47	19	10	-1	-1	-1	28	-1	32	-1	-1	38	-1	-1	-1	-1
32	23	6	-1	39	34	-1	47	24	-1	41	-1	-1	-1	-1	60	-1	20	1	-1	48	-1	33	-1	54	16	-1	57	29	-1	7	-1	52	-1	-1	8	36	51	-1	22	37	38	-1	13	59	-1	-1	40	-1	-1	-1	61	42	45	4	64	-1	-1	-1	17	14	44	19	-1
61	-1	-1	27	-1	-1	33	-1	40	29	-1	47	-1	-1	-1	11	45	-1	-1	57	-1	9	-1	42	5	-1	49	-1	38	59	-1	-1	-1	4	20	-1	-1	2	63	62	54	-1	21	64	43	-1	6	-1	34	51	-1	-1	15	-1	-1	-1	-1	3	8	-1	37	60	-1	7
18	-1	38	-1	41	-1	42	-1	17	-1	26	-1	-1	-1	45	21	46	-1	8	54	-1	-1	4	6	-1	58	13	19	-1	-1	64	-1	-1	-1	30	14	23	48	9	25	-1	-1	49	34	2	29	-1	53	-1	1	56	-1	7	5	-1	27	57	28	61	-1	-1	55	-1	-1
1	51	29	-1	-1	17	-1	11	6	46	20	44	-1	57	-1	-1	47	3	-1	34	30	-1	32	7	24	2	-1	28	-1	55	-1	31	-1	21	41	12	38	-1	45	-1	-1	15	5	-1	-1	-1	-1	-1	-1	-1	-1	40	36	-1	14	-1	9	35	58	-1	-1	-1	-1	-1
60	-1	-1	41	23	44	-1	3	-1	-1	-1	33	22	-1	58	-1	35	-1	34	11	53	54	-1	-1	-1	-1	-1	16	30	-1	29	-1	9	-1	-1	-1	-1	-1	1	-1	63	12	-1	28	37	-1	13	-1	-1	-1	14	42	-1	-1	-1	-1	-1	21	-1	46	40	17	49	48
-1	58	1	-1	50	-1	64	22	43	-1	-1	46	21	27	-1	19	24	-1	-1	29	-1	30	-1	-1	-1	-1	-1	-1	-1	56	49	-1	-1	-1	-1	-1	53	34	-1	57	-1	52	16	-1	42	-1	61	4	-1	-1	-1	18	26	-1	8	-1	-1	14	-1	-1	-1	6	15	10
-1	-1	-1	28	34	59	-1	18	-1	54	15	-1	-1	-1	30	-1	-1	-1	61	9	-1	-1	-1	-1	36	5	53	50	26	-1	-1	12	31	22	-1	-1	56	-1	14	63	21	-1	33	40	-1	10	39	-1	-1	-1	-1	-1	-1	-1	-1	-1	2	24	25	13	60	23	-1	-1
20	-1	33	36	25	-1	45	35	-1	-1	-1	-1	9	-1	28	4	-1	12	-1	63	-1	-1	1	-1	13	-1	-1	-1	-1	11	-1	-1	54	46	6	-1	-1	-1	17	42	24	-1	47	27	-1	55	-1	-1	39	16	31	41	-1	60	40	-1	-1	-1	-1	64	-1	53	-1	57
54	4	-1	6	-1	-1	-1	-1	-1	-1	39	17	-1	13	-1	-1	40	25	16	44	31	-1	-1	47	42	-1	23	22	62	-1	14	27	-1	-1	10	-1	-1	12	-1	33	56	-1	-1	-1	11	-1	-1	15	57	24	21	-1	49	-1	37	-1	-1	18	-1	-1	9	3	-1	-1
62	13	-1	7	57	-1	-1	-1	-1	-1	23	-1	-1	40	-1	63	-1	19	-1	18	-1	-1	3	-1	-1	-1	47	24	37	8	-1	54	16	44	49	-1	-1	52	-1	-1	-1	-1	-1	-1	58	20	-1	-1	30	59	22	12	10	15	-1	-1	4	-1	-1	27	-1	-1	29	-1
-1	-1	-1	49	32	-1	26	27	-1	-1	16	10	-1	-1	-1	53	21	8	-1	6	20	57	23	36	-1	39	-1	-1	-1	-1	-1	-1	18	-1	38	51	-1	-1	-1	-1	30	25	-1	-1	-1	9	22	54	-1	13	28	-1	-1	-1	48	-1	-1	33	-1	-1	-1	-1	47	58
-1	11	39	-1	-1	-1	-1	-1	-1	24	-1	-1	-1	41	60	47	-1	49	4	48	62	-1	58	-1	61	-1	19	46	-1	-1	-1	17	13	-1	-1	7	-1	-1	28	15	57	2	35	44	53	-1	-1	50	-1	-1	-1	33	-1	-1	9	-1	-1	-1	-1	54	-1	42	37	-1
17	-1	-1	-1	48	-1	-1	7	-1	-1	27	-1	50	26	52	6	-1	1	-1	-1	57	-1	38	51	-1	45	-1	-1	4	-1	-1	-1	19	29	-1	60	-1	-1	-1	37	39	62	46	-1	18	-1	23	11	-1	41	47	-1	-1	36	-1	-1	-1	-1	20	31	-1	-1	-1	-1
19	1	-1	25	-1	47	50	40	-1	-1	55	22	11	17	53	-1	-1	59	36	-1	24	42	8	-1	29	-1	18	-1	6	-1	15	39	-1	9	-1	-1	-1	33	-1	-1	26	51	27	-1	12	-1	58	-1	38	-1	57	3	31	48	-1	62	-1	45	14	-1	-1	16	60	-1
-1	46	-1	13	-1	21	-1	-1	32	60	3	43	-1	-1	5	-1	-1	6	47	-1	18	62	-1	40	-1	57	-1	12	-1	-1	42	-1	-1	-1	-1	-1	24	27	-1	17	50	-1	-1	-1	10	-1	7	8	37	34	11	14	-1	-1	26	-1	53	-1	-1	-1	-1	25	9	-1
8	14	-1	60	6	-1	27	16	33	-1	46	-1	28	39	18	-1	-1	-1	63	26	-1	31	-1	53	38	11	-1	35	-1	49	-1	62	47	51	22	-1	-1	42	64	61	17	4	36	24	-1	45	-1	-1	7	-1	29	-1	21	54	-1	40	13	1	3	-1	12	2	-1	50
55	-1	-1	44	52	4	5	-1	47	48	8	-1	-1	58	-1	45	3	34	-1	19	27	-1	12	10	-1	60	-1	-1	21	-1	-1	14	59	26	40	-1	-1	39	7	13	-1	-1	-1	49	-1	-1	30	-1	2	-1	18	-1	-1	-1	46	17	-1	-1	11	57	29	61	41	35
29	-1	35	64	61	53	12	23	-1	10	-1	-1	-1	-1	-1	31	-1	-1	-1	7	-1	16	-1	-1	-1	-1	50	-1	59	-1	-1	-1	45	30	-1	-1	-1	18	-1	-1	-1	5	14	37	-1	-1	-1	-1	4	-1	8	-1	58	13	-1	-1	55	26	48	-1	39	-1	54	47
-1	54	10	57	33	30	49	32	34	-1	-1	-1	-1	-1	-1	38	-1	-1	-1	13	15	2	17	-1	-1	-1	-1	25	-1	24	-1	20	8	41	-1	-1	31	-1	-1	16	60	43	61	-1	-1	-1	47	-1	-1	-1	50	23	-1	27	44	63	18	-1	42	-1	62	36	56	64
11	20	-1	63	18	-1	37	62	-1	-1	57	-1	-1	-1	-1	-1	60	-1	54	-1	-1	-1	64	-1	52	-1	-1	-1	13	61	5	-1	43	-1	34	-1	-1	36	4	-1	32	40	-1	-1	-1	53	42	9	-1	56	33	51	-1	59	6	-1	-1	8	-1	-1	-1	58	-1	-1
-1	-1	-1	-1	12	6	55	1	-1	-1	-1	56	23	-1	-1	-1	54	36	32	16	-1	-1	30	13	37	26	-1	-1	14	41	-1	28	-1	-1	-1	-1	-1	11	25	-1	-1	-1	-1	-1	-1	-1	18	43	64	40	-1	47	62	29	-1	-1	-1	44	-1	-1	51	-1	-1	-1
37	35	11	48	5	45	13	-1	20	58	-1	-1	61	49	59	-1	50	-1	-1	-1	-1	52	15	26	-1	-1	-1	-1	64	51	-1	-1	29	-1	-1	16	8	24	32	41	53	23	42	33	-1	54	-1	36	-1	-1	-1	31	25	1	-1	34	17	55	-1	2	10	-1	46	-1
-1	38	-1	42	7	-1	39	-1	15	-1	-1	57	-1	32	24	55	-1	-1	-1	-1	-1	-1	5	61	-1	43	-1	-1	-1	-1	-1	59	50	12	-1	-1	-1	-1	-1	-1	40	-1	-1	1	47	48	-1	-1	-1	30	16	-1	-1	26	-1	10	35	-1	13	60	-1	-1	-1	14
-1	-1	-1	18	16	24	56	-1	8	44	-1	60	-1	54	-1	-1	42	51	-1	-1	12	4	-1	-1	-1	34	57	-1	-1	52	17	-1	5	38	48	-1	-1	26	55	43	22	-1	31	-1	62	49	63	-1	9	23	-1	-1	61	32	27	-1	-1	37	50	40	-1	1	-1	-1
-1	-1	36	14	46	-1	41	20	28	-1	5	38	-1	63	47	-1	62	-1	-1	58	10	25	60	-1	-1	40	-1	29	-1	2	50	18	-1	27	44	37	-1	6	-1	45	61	-1	-1	21	-1	39	12	-1	-1	-1	-1	-1	8	-1	51	-1	-1	22	26	7	30	-1	-1	-1
23	27	21	-1	22	-1	-1	-1	37	-1	-1	1	34	-1	-1	-1	-1	-1	46	-1	-1	35	-1	39	31	-1	7	-1	16	25	-1	-1	-1	36	-1	59	63	64	-1	54	-1	13	19	-1	-1	-1	15	5	-1	55	17	-1	-1	58	-1	-1	38	9	-1	8	-1	20	52	-1
-1	-1	-1	-1	47	19	9	25	30	4	10	21	33	16	6	3	-1	2	18	-1	-1	41	-1	55	11	-1	38	-1	-1	5	-1	-1	-1	-1	14	15	-1	60	-1	-1	-1	-1	-1	26	-1	56	17	-1	-1	-1	-1	-1	-1	39	-1	24	34	49	64	36	54	45	62	-1
-1	-1	62	-1	15	64	2	-1	48	36	51	31	41	-1	-1	-1	-1	37	-1	53	-1	-1	-1	20	46	24	-1	55	-1	42	1	-1	-1	52	-1	33	-1	21	49	-1	35	10	-1	29	-1	58	-1	-1	-1	-1	45	56	-1	43	5	54	-1	-1	23	-1	-1	39	-1	-1
64 
24 5 31 20
45 39 29 28
64 2 44 47
35 5 55 13
52 63 49 17
30 53 48 13
18 2 33 33
57 21 2 7
18 38 58 32
39 34 35 14
21 22 7 56
55 35 16 39
34 49 1 46
64 49 33 28
36 64 27 29
11 17 49 10
31 4 43 22
62 49 44 29
25 39 54 47
51 53 52 10
14 10 59 63
36 62 17 36
27 24 51 61
61 18 57 46
21 47 36 43
64 8 29 52
41 18 8 10
33 48 28 40
24 60 2 45
28 53 10 19
20 4 14 56
29 4 38 51
40 45 62 32
30 36 10 46
56 14 31 36
7 64 42 41
19 62 55 10
25 55 64 22
41 59 42 39
19 23 2 5
52 48 16 54
21 37 12 20
50 30 45 52
54 25 13 2
23 37 19 24
34 56 59 49
62 39 10 7
38 15 3 58
37 64 50 50
53 19 57 4
18 12 41 53
26 56 1 32
10 53 33 31
14 57 24 36
38 33 42 54
10 42 1 8
57 59 13 62
9 9 25 6
64 17 61 64
13 58 58 8
18 32 34 10
39 4 40 60
30 28 26 24
16 55 4 48
